O Ru
1.0
 12.458530513639   0.000000000000   0.000000000000
  0.000000000000  12.737862712206   0.000000000000
  0.000000000000   0.000000000000  30.922328390258
O Ru
136  64
Selective dynamics
Direct
  0.000000000000   0.250000000000   0.294034547602  T T T
  0.000000000000   0.750000000000   0.294034547602  T T T
  0.250000000000   0.250000000000   0.294034547602  T T T
  0.250000000000   0.750000000000   0.294034547602  T T T
  0.500000000000   0.250000000000   0.294034547602  T T T
  0.500000000000   0.750000000000   0.294034547602  T T T
  0.750000000000   0.250000000000   0.294034547602  T T T
  0.750000000000   0.750000000000   0.294034547602  T T T
  0.125000000000   0.097200253150   0.334074335828  T T T
  0.125000000000   0.597200253150   0.334074335828  T T T
  0.375000000000   0.097200253150   0.334074335828  T T T
  0.375000000000   0.597200253150   0.334074335828  T T T
  0.625000000000   0.097200253150   0.334074335828  T T T
  0.625000000000   0.597200253150   0.334074335828  T T T
  0.875000000000   0.097200253150   0.334074335828  T T T
  0.875000000000   0.597200253150   0.334074335828  T T T
  0.125000000000   0.402799746850   0.334074335828  T T T
  0.125000000000   0.902799746850   0.334074335828  T T T
  0.375000000000   0.402799746850   0.334074335828  T T T
  0.375000000000   0.902799746850   0.334074335828  T T T
  0.625000000000   0.402799746850   0.334074335828  T T T
  0.625000000000   0.902799746850   0.334074335828  T T T
  0.875000000000   0.402799746850   0.334074335828  T T T
  0.875000000000   0.902799746850   0.334074335828  T T T
  0.000000000000   0.250000000000   0.374114124054  T T T
  0.000000000000   0.750000000000   0.374114124054  T T T
  0.250000000000   0.250000000000   0.374114124054  T T T
  0.250000000000   0.750000000000   0.374114124054  T T T
  0.500000000000   0.250000000000   0.374114124054  T T T
  0.500000000000   0.750000000000   0.374114124054  T T T
  0.750000000000   0.250000000000   0.374114124054  T T T
  0.750000000000   0.750000000000   0.374114124054  T T T
  0.000000000000   0.000000000000   0.397017273801  T T T
  0.000000000000   0.500000000000   0.397017273801  T T T
  0.250000000000   0.000000000000   0.397017273801  T T T
  0.250000000000   0.500000000000   0.397017273801  T T T
  0.500000000000   0.000000000000   0.397017273801  T T T
  0.500000000000   0.500000000000   0.397017273801  T T T
  0.750000000000   0.000000000000   0.397017273801  T T T
  0.750000000000   0.500000000000   0.397017273801  T T T
  0.125000000000   0.152799746850   0.437057062027  T T T
  0.125000000000   0.652799746850   0.437057062027  T T T
  0.375000000000   0.152799746850   0.437057062027  T T T
  0.375000000000   0.652799746850   0.437057062027  T T T
  0.625000000000   0.152799746850   0.437057062027  T T T
  0.625000000000   0.652799746850   0.437057062027  T T T
  0.875000000000   0.152799746850   0.437057062027  T T T
  0.875000000000   0.652799746850   0.437057062027  T T T
  0.125000000000   0.347200253150   0.437057062027  T T T
  0.125000000000   0.847200253150   0.437057062027  T T T
  0.375000000000   0.347200253150   0.437057062027  T T T
  0.375000000000   0.847200253150   0.437057062027  T T T
  0.625000000000   0.347200253150   0.437057062027  T T T
  0.625000000000   0.847200253150   0.437057062027  T T T
  0.875000000000   0.347200253150   0.437057062027  T T T
  0.875000000000   0.847200253150   0.437057062027  T T T
  0.000000000000   0.000000000000   0.477096850254  T T T
  0.000000000000   0.500000000000   0.477096850254  T T T
  0.250000000000   0.000000000000   0.477096850254  T T T
  0.250000000000   0.500000000000   0.477096850254  T T T
  0.500000000000   0.000000000000   0.477096850254  T T T
  0.500000000000   0.500000000000   0.477096850254  T T T
  0.750000000000   0.000000000000   0.477096850254  T T T
  0.750000000000   0.500000000000   0.477096850254  T T T
  0.000000000000   0.250000000000   0.500000000000  T T T
  0.000000000000   0.750000000000   0.500000000000  T T T
  0.250000000000   0.250000000000   0.500000000000  T T T
  0.250000000000   0.750000000000   0.500000000000  T T T
  0.500000000000   0.250000000000   0.500000000000  T T T
  0.500000000000   0.750000000000   0.500000000000  T T T
  0.750000000000   0.250000000000   0.500000000000  T T T
  0.750000000000   0.750000000000   0.500000000000  T T T
  0.125000000000   0.097200253150   0.540039788226  T T T
  0.125000000000   0.597200253150   0.540039788226  T T T
  0.375000000000   0.097200253150   0.540039788226  T T T
  0.375000000000   0.597200253150   0.540039788226  T T T
  0.625000000000   0.097200253150   0.540039788226  T T T
  0.625000000000   0.597200253150   0.540039788226  T T T
  0.875000000000   0.097200253150   0.540039788226  T T T
  0.875000000000   0.597200253150   0.540039788226  T T T
  0.125000000000   0.402799746850   0.540039788226  T T T
  0.125000000000   0.902799746850   0.540039788226  T T T
  0.375000000000   0.402799746850   0.540039788226  T T T
  0.375000000000   0.902799746850   0.540039788226  T T T
  0.625000000000   0.402799746850   0.540039788226  T T T
  0.625000000000   0.902799746850   0.540039788226  T T T
  0.875000000000   0.402799746850   0.540039788226  T T T
  0.875000000000   0.902799746850   0.540039788226  T T T
  0.000000000000   0.250000000000   0.580079576453  T T T
  0.000000000000   0.750000000000   0.580079576453  T T T
  0.250000000000   0.250000000000   0.580079576453  T T T
  0.250000000000   0.750000000000   0.580079576453  T T T
  0.500000000000   0.250000000000   0.580079576453  T T T
  0.500000000000   0.750000000000   0.580079576453  T T T
  0.750000000000   0.250000000000   0.580079576453  T T T
  0.750000000000   0.750000000000   0.580079576453  T T T
  0.000000000000   0.000000000000   0.602982726199  T T T
  0.000000000000   0.500000000000   0.602982726199  T T T
  0.250000000000   0.000000000000   0.602982726199  T T T
  0.250000000000   0.500000000000   0.602982726199  T T T
  0.500000000000   0.000000000000   0.602982726199  T T T
  0.500000000000   0.500000000000   0.602982726199  T T T
  0.750000000000   0.000000000000   0.602982726199  T T T
  0.750000000000   0.500000000000   0.602982726199  T T T
  0.125000000000   0.152799746850   0.643022514425  T T T
  0.125000000000   0.652799746850   0.643022514425  T T T
  0.375000000000   0.152799746850   0.643022514425  T T T
  0.375000000000   0.652799746850   0.643022514425  T T T
  0.625000000000   0.152799746850   0.643022514425  T T T
  0.625000000000   0.652799746850   0.643022514425  T T T
  0.875000000000   0.152799746850   0.643022514425  T T T
  0.875000000000   0.652799746850   0.643022514425  T T T
  0.125000000000   0.347200253150   0.643022514425  T T T
  0.125000000000   0.847200253150   0.643022514425  T T T
  0.375000000000   0.347200253150   0.643022514425  T T T
  0.375000000000   0.847200253150   0.643022514425  T T T
  0.625000000000   0.347200253150   0.643022514425  T T T
  0.625000000000   0.847200253150   0.643022514425  T T T
  0.875000000000   0.347200253150   0.643022514425  T T T
  0.875000000000   0.847200253150   0.643022514425  T T T
  0.000000000000   0.000000000000   0.683062302652  T T T
  0.000000000000   0.500000000000   0.683062302652  T T T
  0.250000000000   0.000000000000   0.683062302652  T T T
  0.250000000000   0.500000000000   0.683062302652  T T T
  0.500000000000   0.000000000000   0.683062302652  T T T
  0.500000000000   0.500000000000   0.683062302652  T T T
  0.750000000000   0.000000000000   0.683062302652  T T T
  0.750000000000   0.500000000000   0.683062302652  T T T
  0.000000000000   0.250000000000   0.705965452398  T T T
  0.000000000000   0.750000000000   0.705965452398  T T T
  0.250000000000   0.250000000000   0.705965452398  T T T
  0.250000000000   0.750000000000   0.705965452398  T T T
  0.500000000000   0.250000000000   0.705965452398  T T T
  0.500000000000   0.750000000000   0.705965452398  T T T
  0.750000000000   0.250000000000   0.705965452398  T T T
  0.750000000000   0.750000000000   0.705965452398  T T T
  0.000000000000   0.000000000000   0.334074335828  T T T
  0.000000000000   0.500000000000   0.334074335828  T T T
  0.250000000000   0.000000000000   0.334074335828  T T T
  0.250000000000   0.500000000000   0.334074335828  T T T
  0.500000000000   0.000000000000   0.334074335828  T T T
  0.500000000000   0.500000000000   0.334074335828  T T T
  0.750000000000   0.000000000000   0.334074335828  T T T
  0.750000000000   0.500000000000   0.334074335828  T T T
  0.125000000000   0.250000000000   0.334074335828  T T T
  0.125000000000   0.750000000000   0.334074335828  T T T
  0.375000000000   0.250000000000   0.334074335828  T T T
  0.375000000000   0.750000000000   0.334074335828  T T T
  0.625000000000   0.250000000000   0.334074335828  T T T
  0.625000000000   0.750000000000   0.334074335828  T T T
  0.875000000000   0.250000000000   0.334074335828  T T T
  0.875000000000   0.750000000000   0.334074335828  T T T
  0.125000000000   0.000000000000   0.437057062027  T T T
  0.125000000000   0.500000000000   0.437057062027  T T T
  0.375000000000   0.000000000000   0.437057062027  T T T
  0.375000000000   0.500000000000   0.437057062027  T T T
  0.625000000000   0.000000000000   0.437057062027  T T T
  0.625000000000   0.500000000000   0.437057062027  T T T
  0.875000000000   0.000000000000   0.437057062027  T T T
  0.875000000000   0.500000000000   0.437057062027  T T T
  0.000000000000   0.250000000000   0.437057062027  T T T
  0.000000000000   0.750000000000   0.437057062027  T T T
  0.250000000000   0.250000000000   0.437057062027  T T T
  0.250000000000   0.750000000000   0.437057062027  T T T
  0.500000000000   0.250000000000   0.437057062027  T T T
  0.500000000000   0.750000000000   0.437057062027  T T T
  0.750000000000   0.250000000000   0.437057062027  T T T
  0.750000000000   0.750000000000   0.437057062027  T T T
  0.000000000000   0.000000000000   0.540039788226  T T T
  0.000000000000   0.500000000000   0.540039788226  T T T
  0.250000000000   0.000000000000   0.540039788226  T T T
  0.250000000000   0.500000000000   0.540039788226  T T T
  0.500000000000   0.000000000000   0.540039788226  T T T
  0.500000000000   0.500000000000   0.540039788226  T T T
  0.750000000000   0.000000000000   0.540039788226  T T T
  0.750000000000   0.500000000000   0.540039788226  T T T
  0.125000000000   0.250000000000   0.540039788226  T T T
  0.125000000000   0.750000000000   0.540039788226  T T T
  0.375000000000   0.250000000000   0.540039788226  T T T
  0.375000000000   0.750000000000   0.540039788226  T T T
  0.625000000000   0.250000000000   0.540039788226  T T T
  0.625000000000   0.750000000000   0.540039788226  T T T
  0.875000000000   0.250000000000   0.540039788226  T T T
  0.875000000000   0.750000000000   0.540039788226  T T T
  0.125000000000   0.000000000000   0.643022514425  T T T
  0.125000000000   0.500000000000   0.643022514425  T T T
  0.375000000000   0.000000000000   0.643022514425  T T T
  0.375000000000   0.500000000000   0.643022514425  T T T
  0.625000000000   0.000000000000   0.643022514425  T T T
  0.625000000000   0.500000000000   0.643022514425  T T T
  0.875000000000   0.000000000000   0.643022514425  T T T
  0.875000000000   0.500000000000   0.643022514425  T T T
  0.000000000000   0.250000000000   0.643022514425  T T T
  0.000000000000   0.750000000000   0.643022514425  T T T
  0.250000000000   0.250000000000   0.643022514425  T T T
  0.250000000000   0.750000000000   0.643022514425  T T T
  0.500000000000   0.250000000000   0.643022514425  T T T
  0.500000000000   0.750000000000   0.643022514425  T T T
  0.750000000000   0.250000000000   0.643022514425  T T T
  0.750000000000   0.750000000000   0.643022514425  T T T
